************************************************************************
file with basedata            : mm14_.bas
initial value random generator: 1797048194
************************************************************************
projects                      :  1
jobs (incl. supersource/sink ):  12
horizon                       :  70
RESOURCES
  - renewable                 :  2   R
  - nonrenewable              :  2   N
  - doubly constrained        :  0   D
************************************************************************
PROJECT INFORMATION:
pronr.  #jobs rel.date duedate tardcost  MPM-Time
    1     10      0       12        6       12
************************************************************************
PRECEDENCE RELATIONS:
jobnr.    #modes  #successors   successors
   0        1          3           1   2   3
   1        3          1           4
   2        3          3           5   6  10
   3        3          1           9
   4        3          2           7  10
   5        3          2           7   8
   6        3          2           8   9
   7        3          1           9
   8        3          1          11
   9        3          1          11
  10        3          1          11
  11        1          0        
************************************************************************
REQUESTS/DURATIONS:
jobnr. mode duration  R 1  R 2  R 3  R 4  E(W 1)  E(W 2)
------------------------------------------------------------------------
  0      1     0       0    0    0    0     0       0
  1      1     3       0    8    9    6    24      45
  2      1     4       0    7   10    9    28      76
  3      1     6       7    0    7    8    42      90
  4      1     3       8    0    8    6    24      42
  5      1     2      10    0    4    2    20      12
  6      1     3       2    0    6    8     6      42
  7      1     3       4    0    4    7    12      33
  8      1     3       0    9    9    8    27      51
  9      1     3       0    2    8    8     6      48
 10      1     2       0    3    5    6     6      22
 11      1     0       0    0    0    0     0       0
************************************************************************
RESOURCEAVAILABILITIES:
  R 1  R 2
   23   116
************************************************************************
RESOURCE LIMITS:
jobnr.  l(R 1)  u(R 1)  l(R 2)  u(R 2)
------------------------------------------------------------------------
  0        0       0       0       0
  1        4       8       8      15
  2        4       7      10      19
  3        4       7       8      15
  4        4       8       7      14
  5        5      10       3       6
  6        1       2       7      14
  7        2       4       6      11
  8        5       9       9      17
  9        1       2       8      16
 10        2       3       6      11
 11        0       0       0       0
************************************************************************
SCENARIOS:
------------------------------------------------------------------------
RESOURCE k = 1
s = 1: (0, 33, 21, 34, 31, 37, 7, 11, 19, 6, 5, 0)
s = 2: (0, 19, 27, 51, 24, 14, 5, 17, 23, 5, 6, 0)
s = 3: (0, 19, 34, 34, 25, 28, 6, 16, 17, 6, 9, 0)
s = 4: (0, 21, 24, 52, 45, 20, 5, 18, 34, 8, 5, 0)
s = 5: (0, 18, 23, 29, 24, 20, 9, 15, 38, 6, 6, 0)
s = 6: (0, 27, 34, 54, 14, 17, 5, 11, 41, 5, 6, 0)
s = 7: (0, 17, 20, 40, 38, 29, 4, 9, 20, 7, 10, 0)
s = 8: (0, 30, 34, 52, 32, 21, 5, 11, 25, 4, 5, 0)
s = 9: (0, 23, 30, 59, 21, 22, 7, 17, 39, 6, 6, 0)
s = 10: (0, 19, 18, 32, 18, 29, 6, 19, 45, 5, 6, 0)
s = 11: (0, 19, 19, 42, 23, 24, 7, 8, 42, 4, 5, 0)
s = 12: (0, 19, 31, 36, 43, 30, 10, 8, 21, 6, 7, 0)
s = 13: (0, 20, 30, 46, 25, 19, 7, 15, 20, 10, 7, 0)
s = 14: (0, 41, 27, 42, 17, 15, 9, 18, 19, 5, 6, 0)
s = 15: (0, 28, 23, 50, 22, 32, 8, 10, 25, 8, 4, 0)
s = 16: (0, 32, 21, 61, 25, 14, 8, 14, 16, 5, 5, 0)
s = 17: (0, 18, 22, 42, 22, 15, 6, 13, 30, 7, 7, 0)
s = 18: (0, 22, 34, 27, 24, 24, 4, 14, 23, 7, 9, 0)
s = 19: (0, 14, 30, 32, 17, 13, 12, 8, 15, 4, 4, 0)
s = 20: (0, 28, 35, 47, 23, 18, 9, 16, 24, 7, 5, 0)
s = 21: (0, 19, 23, 42, 29, 20, 8, 12, 23, 5, 8, 0)
s = 22: (0, 41, 22, 29, 22, 19, 5, 14, 31, 8, 11, 0)
s = 23: (0, 37, 29, 61, 23, 24, 10, 14, 31, 6, 5, 0)
s = 24: (0, 33, 27, 46, 23, 19, 5, 8, 27, 7, 10, 0)
s = 25: (0, 28, 23, 31, 18, 29, 9, 10, 42, 7, 8, 0)
s = 26: (0, 29, 44, 38, 33, 13, 9, 9, 29, 5, 6, 0)
s = 27: (0, 25, 30, 58, 34, 16, 7, 13, 52, 6, 8, 0)
s = 28: (0, 16, 31, 35, 35, 13, 6, 9, 27, 7, 4, 0)
s = 29: (0, 22, 23, 29, 20, 32, 6, 14, 17, 6, 9, 0)
s = 30: (0, 24, 28, 24, 29, 29, 6, 10, 34, 5, 8, 0)
s = 31: (0, 26, 26, 56, 18, 12, 6, 10, 28, 9, 7, 0)
s = 32: (0, 15, 38, 44, 19, 18, 5, 13, 29, 7, 10, 0)
s = 33: (0, 37, 25, 47, 43, 26, 6, 10, 38, 10, 7, 0)
s = 34: (0, 20, 22, 50, 24, 22, 8, 9, 20, 5, 5, 0)
s = 35: (0, 25, 20, 24, 20, 17, 4, 13, 19, 7, 8, 0)
s = 36: (0, 26, 36, 78, 21, 20, 5, 8, 28, 5, 6, 0)
s = 37: (0, 21, 29, 57, 19, 21, 6, 9, 23, 4, 6, 0)
s = 38: (0, 18, 20, 45, 29, 18, 8, 15, 24, 5, 6, 0)
s = 39: (0, 23, 30, 24, 18, 25, 6, 21, 29, 7, 5, 0)
s = 40: (0, 14, 27, 34, 18, 16, 10, 8, 40, 5, 10, 0)
s = 41: (0, 20, 39, 39, 30, 15, 5, 15, 20, 8, 5, 0)
s = 42: (0, 18, 19, 34, 14, 24, 6, 20, 21, 8, 9, 0)
s = 43: (0, 20, 23, 73, 20, 17, 8, 11, 17, 9, 6, 0)
s = 44: (0, 33, 28, 62, 20, 22, 6, 15, 28, 6, 6, 0)
s = 45: (0, 25, 20, 59, 31, 13, 7, 15, 43, 4, 8, 0)
s = 46: (0, 30, 22, 41, 25, 21, 4, 15, 21, 6, 6, 0)
s = 47: (0, 15, 39, 36, 22, 22, 7, 10, 22, 5, 5, 0)
s = 48: (0, 47, 33, 74, 16, 24, 6, 19, 20, 9, 4, 0)
s = 49: (0, 27, 18, 50, 27, 15, 5, 9, 17, 6, 6, 0)
s = 50: (0, 24, 27, 37, 21, 15, 5, 10, 19, 8, 7, 0)
s = 51: (0, 29, 27, 44, 31, 26, 5, 12, 39, 5, 6, 0)
s = 52: (0, 21, 38, 62, 26, 34, 7, 20, 32, 4, 6, 0)
s = 53: (0, 25, 19, 41, 22, 13, 7, 8, 15, 7, 6, 0)
s = 54: (0, 24, 18, 54, 32, 34, 4, 10, 22, 9, 7, 0)
s = 55: (0, 22, 43, 39, 27, 20, 7, 15, 20, 4, 9, 0)
s = 56: (0, 42, 19, 38, 36, 19, 6, 11, 32, 4, 4, 0)
s = 57: (0, 35, 27, 33, 27, 15, 4, 17, 36, 11, 6, 0)
s = 58: (0, 24, 20, 45, 25, 27, 8, 13, 43, 6, 6, 0)
s = 59: (0, 22, 30, 35, 30, 23, 5, 14, 31, 10, 5, 0)
s = 60: (0, 18, 25, 33, 21, 22, 7, 12, 15, 5, 6, 0)
s = 61: (0, 24, 21, 39, 19, 18, 5, 9, 22, 8, 5, 0)
s = 62: (0, 24, 20, 55, 20, 24, 11, 20, 19, 6, 6, 0)
s = 63: (0, 28, 42, 35, 24, 15, 6, 19, 19, 10, 6, 0)
s = 64: (0, 23, 41, 58, 34, 13, 5, 9, 26, 5, 8, 0)
s = 65: (0, 39, 19, 49, 29, 16, 7, 14, 43, 6, 7, 0)
s = 66: (0, 40, 22, 37, 23, 19, 6, 9, 37, 6, 7, 0)
s = 67: (0, 24, 21, 44, 29, 17, 8, 8, 27, 7, 9, 0)
s = 68: (0, 17, 28, 30, 18, 18, 7, 9, 27, 5, 6, 0)
s = 69: (0, 31, 38, 47, 30, 14, 9, 12, 41, 4, 9, 0)
s = 70: (0, 14, 37, 31, 23, 16, 5, 11, 24, 5, 4, 0)
s = 71: (0, 26, 16, 53, 49, 17, 6, 11, 37, 6, 6, 0)
s = 72: (0, 15, 35, 60, 23, 37, 5, 14, 25, 10, 7, 0)
s = 73: (0, 28, 25, 62, 33, 25, 6, 9, 41, 4, 10, 0)
s = 74: (0, 30, 26, 42, 19, 19, 5, 15, 27, 7, 8, 0)
s = 75: (0, 31, 31, 49, 17, 24, 4, 10, 18, 6, 5, 0)
s = 76: (0, 14, 29, 32, 24, 18, 9, 18, 21, 7, 8, 0)
s = 77: (0, 26, 22, 39, 24, 20, 6, 10, 35, 5, 9, 0)
s = 78: (0, 29, 31, 40, 25, 23, 4, 12, 22, 4, 6, 0)
s = 79: (0, 31, 36, 29, 16, 18, 6, 15, 27, 7, 5, 0)
s = 80: (0, 16, 40, 55, 35, 17, 4, 14, 24, 10, 6, 0)
s = 81: (0, 26, 31, 58, 14, 28, 8, 9, 33, 8, 6, 0)
s = 82: (0, 22, 35, 49, 19, 22, 6, 17, 25, 8, 6, 0)
s = 83: (0, 24, 20, 46, 17, 20, 6, 11, 32, 8, 6, 0)
s = 84: (0, 25, 16, 47, 23, 13, 9, 9, 23, 8, 7, 0)
s = 85: (0, 24, 33, 54, 19, 21, 6, 9, 48, 8, 4, 0)
s = 86: (0, 15, 26, 47, 19, 20, 5, 12, 29, 6, 5, 0)
s = 87: (0, 14, 37, 37, 16, 16, 6, 12, 16, 8, 6, 0)
s = 88: (0, 31, 40, 25, 42, 19, 7, 12, 48, 5, 10, 0)
s = 89: (0, 20, 42, 24, 40, 23, 6, 16, 16, 5, 6, 0)
s = 90: (0, 40, 41, 48, 17, 26, 7, 18, 31, 8, 10, 0)
s = 91: (0, 27, 32, 26, 30, 17, 8, 12, 23, 7, 5, 0)
s = 92: (0, 30, 25, 27, 22, 23, 8, 18, 15, 8, 6, 0)
s = 93: (0, 16, 34, 31, 25, 22, 7, 18, 36, 11, 6, 0)
s = 94: (0, 30, 19, 44, 20, 15, 10, 18, 32, 6, 6, 0)
s = 95: (0, 17, 24, 45, 39, 26, 5, 13, 35, 7, 9, 0)
s = 96: (0, 17, 25, 47, 27, 15, 6, 18, 35, 10, 7, 0)
s = 97: (0, 18, 26, 36, 19, 25, 6, 13, 25, 5, 4, 0)
s = 98: (0, 15, 19, 62, 27, 21, 6, 11, 29, 6, 6, 0)
s = 99: (0, 24, 24, 22, 27, 33, 5, 10, 32, 5, 8, 0)
s = 100: (0, 29, 23, 28, 16, 25, 4, 12, 18, 6, 4, 0)
s = 101: (0, 29, 20, 43, 31, 16, 10, 22, 20, 6, 6, 0)
s = 102: (0, 19, 29, 35, 33, 13, 7, 14, 17, 8, 5, 0)
s = 103: (0, 30, 43, 61, 24, 14, 5, 18, 22, 6, 6, 0)
s = 104: (0, 27, 28, 39, 35, 27, 6, 10, 16, 10, 6, 0)
s = 105: (0, 33, 41, 56, 21, 32, 5, 8, 24, 9, 7, 0)
s = 106: (0, 21, 35, 45, 15, 24, 7, 12, 22, 5, 4, 0)
s = 107: (0, 40, 19, 32, 19, 34, 8, 14, 30, 6, 8, 0)
s = 108: (0, 22, 20, 36, 25, 23, 7, 12, 21, 6, 9, 0)
s = 109: (0, 21, 22, 27, 31, 31, 6, 15, 16, 6, 5, 0)
s = 110: (0, 28, 35, 32, 19, 18, 5, 11, 23, 5, 5, 0)
s = 111: (0, 29, 28, 53, 28, 18, 8, 9, 26, 6, 8, 0)
s = 112: (0, 34, 38, 83, 16, 32, 5, 9, 44, 9, 6, 0)
s = 113: (0, 17, 35, 32, 16, 29, 6, 8, 38, 5, 7, 0)
s = 114: (0, 16, 26, 41, 17, 22, 4, 17, 22, 9, 7, 0)
s = 115: (0, 23, 33, 57, 19, 21, 9, 16, 29, 11, 7, 0)
s = 116: (0, 20, 50, 37, 29, 19, 7, 15, 33, 6, 8, 0)
s = 117: (0, 16, 44, 50, 29, 18, 8, 16, 32, 6, 9, 0)
s = 118: (0, 30, 29, 25, 30, 20, 4, 10, 30, 8, 4, 0)
s = 119: (0, 18, 19, 26, 15, 20, 6, 14, 29, 10, 8, 0)
s = 120: (0, 21, 23, 36, 24, 16, 6, 17, 42, 6, 7, 0)
s = 121: (0, 20, 40, 26, 17, 23, 6, 12, 33, 7, 5, 0)
s = 122: (0, 27, 41, 37, 22, 33, 5, 18, 25, 7, 4, 0)
s = 123: (0, 25, 32, 43, 25, 18, 5, 18, 23, 5, 5, 0)
s = 124: (0, 24, 25, 33, 16, 18, 5, 11, 28, 5, 8, 0)
s = 125: (0, 34, 27, 29, 30, 14, 4, 17, 49, 5, 6, 0)
s = 126: (0, 22, 44, 38, 36, 27, 6, 8, 27, 4, 7, 0)
s = 127: (0, 34, 18, 30, 18, 13, 6, 19, 39, 7, 10, 0)
s = 128: (0, 31, 32, 26, 23, 19, 5, 8, 38, 9, 6, 0)
s = 129: (0, 32, 27, 33, 21, 18, 6, 21, 18, 7, 6, 0)
s = 130: (0, 34, 29, 34, 33, 14, 6, 14, 29, 7, 4, 0)
s = 131: (0, 38, 19, 36, 17, 15, 9, 15, 26, 7, 7, 0)
s = 132: (0, 19, 27, 26, 39, 14, 6, 8, 24, 6, 5, 0)
s = 133: (0, 14, 22, 36, 26, 24, 9, 19, 23, 10, 5, 0)
s = 134: (0, 19, 49, 35, 29, 17, 5, 14, 33, 5, 10, 0)
s = 135: (0, 20, 30, 44, 16, 17, 7, 10, 20, 5, 6, 0)
s = 136: (0, 16, 40, 41, 24, 25, 6, 11, 24, 6, 6, 0)
s = 137: (0, 27, 16, 28, 15, 15, 6, 9, 33, 5, 8, 0)
s = 138: (0, 19, 22, 38, 27, 18, 7, 10, 21, 7, 6, 0)
s = 139: (0, 20, 41, 28, 16, 18, 7, 8, 33, 9, 11, 0)
s = 140: (0, 17, 23, 41, 32, 18, 5, 11, 39, 6, 7, 0)
s = 141: (0, 15, 20, 37, 21, 28, 7, 13, 31, 9, 5, 0)
s = 142: (0, 22, 15, 26, 15, 16, 8, 11, 20, 8, 4, 0)
s = 143: (0, 22, 30, 38, 25, 20, 4, 12, 33, 7, 10, 0)
s = 144: (0, 17, 35, 24, 24, 30, 6, 18, 32, 5, 5, 0)
s = 145: (0, 25, 26, 29, 26, 19, 8, 15, 21, 8, 6, 0)
s = 146: (0, 33, 22, 39, 22, 14, 8, 10, 23, 5, 7, 0)
s = 147: (0, 20, 38, 72, 30, 22, 5, 14, 25, 7, 6, 0)
s = 148: (0, 20, 41, 50, 27, 20, 10, 15, 22, 6, 7, 0)
s = 149: (0, 21, 38, 31, 20, 22, 9, 14, 29, 5, 5, 0)
s = 150: (0, 28, 34, 38, 32, 21, 5, 19, 24, 10, 6, 0)
s = 151: (0, 26, 28, 43, 16, 17, 5, 13, 30, 6, 6, 0)
s = 152: (0, 28, 29, 47, 22, 23, 6, 17, 29, 7, 4, 0)
s = 153: (0, 19, 39, 38, 13, 21, 6, 7, 46, 8, 6, 0)
s = 154: (0, 33, 32, 35, 25, 31, 7, 10, 20, 4, 8, 0)
s = 155: (0, 20, 45, 33, 43, 30, 4, 9, 26, 4, 5, 0)
s = 156: (0, 21, 20, 52, 25, 19, 7, 15, 22, 6, 6, 0)
s = 157: (0, 21, 40, 39, 18, 19, 8, 13, 27, 6, 5, 0)
s = 158: (0, 37, 24, 37, 21, 28, 7, 14, 29, 6, 6, 0)
s = 159: (0, 17, 16, 63, 22, 20, 6, 9, 34, 6, 6, 0)
s = 160: (0, 35, 24, 44, 24, 20, 5, 14, 34, 8, 7, 0)
s = 161: (0, 35, 33, 63, 44, 14, 7, 10, 29, 8, 8, 0)
s = 162: (0, 24, 40, 49, 18, 22, 4, 15, 45, 6, 8, 0)
s = 163: (0, 22, 18, 50, 40, 16, 7, 13, 21, 11, 6, 0)
s = 164: (0, 25, 39, 28, 15, 18, 5, 19, 15, 4, 8, 0)
s = 165: (0, 16, 26, 34, 21, 16, 6, 16, 42, 8, 5, 0)
s = 166: (0, 31, 37, 65, 32, 13, 5, 13, 25, 4, 8, 0)
s = 167: (0, 22, 35, 50, 28, 18, 6, 10, 19, 6, 7, 0)
s = 168: (0, 14, 33, 41, 24, 11, 5, 10, 26, 6, 6, 0)
s = 169: (0, 19, 24, 37, 35, 11, 6, 14, 26, 8, 5, 0)
s = 170: (0, 20, 28, 38, 38, 24, 8, 12, 46, 6, 7, 0)
s = 171: (0, 43, 25, 43, 19, 17, 7, 15, 32, 8, 7, 0)
s = 172: (0, 31, 21, 42, 28, 28, 5, 13, 35, 6, 5, 0)
s = 173: (0, 32, 32, 48, 26, 26, 7, 14, 30, 7, 11, 0)
s = 174: (0, 24, 30, 51, 32, 25, 8, 19, 20, 6, 9, 0)
s = 175: (0, 19, 41, 40, 38, 24, 5, 16, 38, 6, 8, 0)
s = 176: (0, 37, 24, 74, 24, 19, 8, 13, 25, 5, 5, 0)
s = 177: (0, 29, 34, 31, 19, 21, 4, 8, 23, 6, 11, 0)
s = 178: (0, 36, 33, 48, 15, 23, 7, 21, 22, 10, 6, 0)
s = 179: (0, 26, 27, 36, 25, 26, 4, 11, 42, 8, 5, 0)
s = 180: (0, 17, 45, 28, 22, 20, 10, 14, 33, 6, 6, 0)
s = 181: (0, 17, 25, 46, 36, 17, 4, 10, 40, 4, 7, 0)
s = 182: (0, 28, 27, 52, 18, 23, 5, 19, 16, 6, 7, 0)
s = 183: (0, 34, 42, 38, 41, 24, 5, 12, 28, 5, 8, 0)
s = 184: (0, 21, 34, 28, 31, 14, 6, 9, 28, 9, 8, 0)
s = 185: (0, 30, 19, 28, 44, 19, 4, 8, 24, 5, 5, 0)
s = 186: (0, 18, 20, 47, 17, 17, 5, 12, 20, 6, 11, 0)
s = 187: (0, 25, 24, 58, 25, 18, 6, 11, 41, 6, 6, 0)
s = 188: (0, 23, 38, 37, 35, 27, 5, 13, 29, 6, 5, 0)
s = 189: (0, 15, 36, 23, 30, 27, 5, 15, 23, 4, 4, 0)
s = 190: (0, 24, 32, 61, 33, 24, 10, 9, 24, 9, 5, 0)
s = 191: (0, 22, 23, 37, 19, 22, 8, 8, 31, 7, 6, 0)
s = 192: (0, 24, 27, 41, 30, 24, 7, 17, 30, 4, 8, 0)
s = 193: (0, 18, 32, 31, 15, 19, 8, 7, 31, 4, 5, 0)
s = 194: (0, 25, 28, 83, 28, 16, 6, 11, 29, 5, 7, 0)
s = 195: (0, 24, 31, 23, 29, 17, 5, 12, 15, 4, 8, 0)
s = 196: (0, 33, 32, 38, 33, 22, 6, 9, 47, 8, 5, 0)
s = 197: (0, 19, 28, 44, 26, 26, 7, 19, 29, 9, 5, 0)
s = 198: (0, 20, 17, 65, 25, 17, 4, 11, 33, 8, 5, 0)
s = 199: (0, 27, 30, 51, 13, 12, 6, 14, 29, 6, 8, 0)
s = 200: (0, 31, 19, 53, 21, 22, 12, 12, 21, 4, 4, 0)
------------------------------------------------------------------------
RESOURCE k = 2
s = 1: (0, 61, 57, 72, 54, 22, 44, 30, 36, 48, 16, 0)
s = 2: (0, 36, 74, 110, 42, 8, 32, 46, 43, 38, 21, 0)
s = 3: (0, 35, 91, 73, 44, 17, 42, 42, 32, 45, 32, 0)
s = 4: (0, 39, 63, 110, 78, 12, 32, 47, 64, 59, 18, 0)
s = 5: (0, 34, 62, 61, 42, 12, 60, 41, 71, 41, 19, 0)
s = 6: (0, 51, 92, 114, 25, 10, 30, 31, 76, 37, 21, 0)
s = 7: (0, 32, 54, 86, 66, 18, 27, 25, 38, 56, 35, 0)
s = 8: (0, 57, 92, 111, 56, 13, 35, 31, 46, 29, 17, 0)
s = 9: (0, 43, 80, 126, 37, 14, 45, 45, 74, 45, 19, 0)
s = 10: (0, 35, 49, 68, 31, 18, 40, 52, 84, 36, 20, 0)
s = 11: (0, 35, 50, 90, 40, 14, 45, 22, 78, 30, 15, 0)
s = 12: (0, 36, 84, 77, 74, 18, 67, 22, 39, 47, 23, 0)
s = 13: (0, 37, 81, 97, 44, 11, 48, 40, 38, 76, 24, 0)
s = 14: (0, 77, 72, 90, 30, 9, 61, 48, 36, 35, 21, 0)
s = 15: (0, 51, 63, 106, 38, 19, 50, 26, 46, 60, 13, 0)
s = 16: (0, 60, 56, 130, 43, 9, 55, 37, 29, 33, 19, 0)
s = 17: (0, 33, 59, 90, 38, 9, 42, 34, 56, 54, 24, 0)
s = 18: (0, 40, 91, 57, 42, 15, 27, 36, 43, 52, 33, 0)
s = 19: (0, 27, 80, 67, 29, 8, 78, 22, 28, 31, 14, 0)
s = 20: (0, 52, 94, 100, 40, 11, 62, 42, 46, 53, 18, 0)
s = 21: (0, 34, 63, 89, 50, 12, 53, 33, 43, 37, 29, 0)
s = 22: (0, 77, 58, 61, 39, 12, 32, 36, 58, 59, 37, 0)
s = 23: (0, 69, 77, 130, 40, 15, 64, 38, 58, 45, 16, 0)
s = 24: (0, 61, 72, 98, 40, 12, 30, 22, 51, 52, 37, 0)
s = 25: (0, 52, 60, 65, 32, 18, 57, 28, 79, 53, 30, 0)
s = 26: (0, 54, 120, 80, 57, 8, 62, 24, 53, 36, 21, 0)
s = 27: (0, 47, 80, 123, 59, 10, 44, 36, 97, 45, 30, 0)
s = 28: (0, 29, 82, 75, 60, 8, 37, 23, 51, 54, 14, 0)
s = 29: (0, 40, 62, 61, 34, 19, 36, 39, 32, 46, 32, 0)
s = 30: (0, 44, 75, 52, 51, 18, 37, 26, 64, 39, 29, 0)
s = 31: (0, 49, 70, 120, 32, 8, 41, 25, 52, 66, 25, 0)
s = 32: (0, 28, 103, 95, 32, 11, 35, 36, 54, 49, 34, 0)
s = 33: (0, 68, 66, 99, 75, 16, 40, 27, 72, 73, 25, 0)
s = 34: (0, 36, 58, 107, 42, 14, 55, 24, 36, 39, 17, 0)
s = 35: (0, 46, 53, 50, 34, 10, 26, 36, 35, 50, 28, 0)
s = 36: (0, 49, 98, 167, 37, 12, 30, 20, 53, 36, 19, 0)
s = 37: (0, 39, 77, 121, 34, 13, 42, 24, 43, 29, 20, 0)
s = 38: (0, 33, 55, 96, 51, 11, 54, 40, 45, 35, 21, 0)
s = 39: (0, 44, 80, 50, 32, 15, 40, 56, 54, 49, 16, 0)
s = 40: (0, 26, 73, 72, 31, 10, 64, 22, 75, 37, 37, 0)
s = 41: (0, 38, 106, 82, 52, 9, 33, 40, 37, 57, 18, 0)
s = 42: (0, 34, 51, 72, 25, 15, 40, 54, 39, 57, 31, 0)
s = 43: (0, 36, 63, 155, 34, 11, 50, 30, 32, 71, 21, 0)
s = 44: (0, 62, 74, 133, 34, 13, 37, 40, 52, 41, 21, 0)
s = 45: (0, 46, 53, 127, 53, 8, 47, 39, 81, 32, 26, 0)
s = 46: (0, 56, 58, 87, 43, 13, 27, 40, 39, 46, 20, 0)
s = 47: (0, 28, 106, 76, 38, 13, 44, 26, 41, 34, 16, 0)
s = 48: (0, 88, 89, 158, 28, 14, 36, 51, 38, 67, 15, 0)
s = 49: (0, 50, 48, 108, 48, 9, 32, 23, 32, 47, 22, 0)
s = 50: (0, 44, 74, 79, 36, 9, 30, 25, 35, 62, 25, 0)
s = 51: (0, 53, 73, 93, 54, 16, 32, 33, 73, 37, 21, 0)
s = 52: (0, 39, 103, 133, 45, 20, 46, 54, 60, 30, 22, 0)
s = 53: (0, 47, 51, 88, 38, 8, 49, 22, 29, 49, 20, 0)
s = 54: (0, 45, 49, 116, 56, 21, 25, 27, 41, 66, 26, 0)
s = 55: (0, 41, 117, 83, 46, 12, 48, 40, 37, 32, 31, 0)
s = 56: (0, 78, 52, 80, 63, 12, 36, 29, 59, 32, 15, 0)
s = 57: (0, 65, 72, 70, 47, 9, 26, 47, 68, 81, 20, 0)
s = 58: (0, 45, 55, 95, 43, 16, 53, 35, 81, 47, 21, 0)
s = 59: (0, 40, 82, 74, 52, 14, 31, 37, 59, 75, 17, 0)
s = 60: (0, 33, 68, 70, 36, 13, 49, 33, 28, 35, 21, 0)
s = 61: (0, 44, 56, 83, 33, 11, 30, 24, 40, 60, 18, 0)
s = 62: (0, 44, 54, 118, 35, 14, 71, 54, 35, 43, 21, 0)
s = 63: (0, 53, 112, 75, 41, 9, 40, 51, 36, 76, 22, 0)
s = 64: (0, 42, 110, 123, 59, 8, 35, 25, 49, 34, 29, 0)
s = 65: (0, 72, 50, 104, 50, 10, 47, 38, 81, 42, 24, 0)
s = 66: (0, 75, 59, 79, 40, 12, 39, 23, 70, 43, 23, 0)
s = 67: (0, 44, 55, 94, 50, 11, 56, 21, 50, 52, 33, 0)
s = 68: (0, 31, 75, 63, 32, 11, 47, 25, 50, 36, 20, 0)
s = 69: (0, 58, 103, 100, 51, 8, 60, 32, 78, 28, 30, 0)
s = 70: (0, 26, 100, 65, 41, 10, 35, 29, 44, 40, 13, 0)
s = 71: (0, 48, 43, 114, 85, 10, 40, 30, 69, 46, 21, 0)
s = 72: (0, 27, 94, 128, 40, 22, 33, 38, 47, 74, 24, 0)
s = 73: (0, 53, 67, 131, 57, 15, 41, 24, 77, 28, 35, 0)
s = 74: (0, 56, 69, 89, 33, 12, 34, 40, 51, 51, 28, 0)
s = 75: (0, 58, 82, 105, 30, 15, 24, 27, 34, 46, 19, 0)
s = 76: (0, 26, 78, 68, 41, 11, 61, 50, 39, 54, 27, 0)
s = 77: (0, 49, 58, 83, 41, 12, 38, 27, 66, 37, 30, 0)
s = 78: (0, 54, 83, 86, 44, 14, 23, 33, 42, 28, 19, 0)
s = 79: (0, 58, 96, 61, 27, 11, 36, 42, 50, 51, 17, 0)
s = 80: (0, 30, 107, 117, 60, 11, 26, 38, 45, 75, 21, 0)
s = 81: (0, 48, 82, 124, 25, 17, 56, 24, 62, 58, 21, 0)
s = 82: (0, 41, 94, 104, 32, 14, 36, 46, 47, 58, 21, 0)
s = 83: (0, 45, 54, 97, 29, 12, 41, 29, 61, 59, 22, 0)
s = 84: (0, 46, 42, 100, 41, 8, 59, 23, 43, 58, 25, 0)
s = 85: (0, 45, 90, 116, 33, 13, 36, 24, 91, 60, 13, 0)
s = 86: (0, 29, 71, 101, 32, 12, 32, 32, 54, 44, 17, 0)
s = 87: (0, 25, 100, 79, 27, 10, 36, 32, 29, 58, 22, 0)
s = 88: (0, 57, 107, 52, 74, 12, 44, 31, 89, 35, 37, 0)
s = 89: (0, 36, 113, 52, 70, 14, 38, 43, 30, 39, 22, 0)
s = 90: (0, 74, 110, 102, 29, 16, 49, 50, 57, 63, 34, 0)
s = 91: (0, 51, 86, 55, 52, 11, 52, 33, 43, 50, 16, 0)
s = 92: (0, 55, 67, 58, 39, 14, 51, 49, 27, 59, 20, 0)
s = 93: (0, 30, 91, 66, 44, 14, 46, 47, 68, 81, 20, 0)
s = 94: (0, 57, 51, 94, 34, 9, 68, 48, 60, 41, 19, 0)
s = 95: (0, 32, 65, 95, 69, 16, 35, 35, 65, 49, 32, 0)
s = 96: (0, 32, 67, 99, 47, 9, 39, 50, 65, 76, 23, 0)
s = 97: (0, 32, 69, 76, 33, 15, 36, 34, 48, 36, 15, 0)
s = 98: (0, 28, 50, 132, 47, 13, 37, 30, 53, 42, 19, 0)
s = 99: (0, 44, 64, 47, 47, 20, 31, 27, 61, 36, 29, 0)
s = 100: (0, 54, 61, 60, 27, 15, 24, 31, 33, 41, 14, 0)
s = 101: (0, 53, 54, 91, 54, 10, 70, 59, 37, 44, 20, 0)
s = 102: (0, 36, 77, 75, 58, 8, 47, 38, 31, 64, 18, 0)
s = 103: (0, 55, 116, 131, 41, 9, 32, 50, 41, 43, 20, 0)
s = 104: (0, 49, 76, 83, 61, 17, 41, 26, 31, 77, 21, 0)
s = 105: (0, 61, 109, 119, 36, 19, 31, 21, 44, 67, 25, 0)
s = 106: (0, 39, 94, 96, 25, 14, 47, 31, 40, 39, 14, 0)
s = 107: (0, 75, 50, 69, 32, 21, 55, 38, 57, 41, 28, 0)
s = 108: (0, 41, 53, 76, 43, 14, 48, 33, 39, 42, 31, 0)
s = 109: (0, 39, 58, 57, 53, 19, 36, 41, 30, 47, 18, 0)
s = 110: (0, 51, 95, 67, 32, 11, 33, 30, 43, 36, 18, 0)
s = 111: (0, 55, 75, 112, 48, 11, 55, 24, 50, 47, 28, 0)
s = 112: (0, 64, 102, 178, 28, 20, 34, 23, 82, 66, 21, 0)
s = 113: (0, 31, 93, 68, 27, 18, 38, 22, 71, 36, 23, 0)
s = 114: (0, 29, 70, 88, 30, 13, 27, 45, 42, 65, 23, 0)
s = 115: (0, 42, 89, 122, 32, 13, 58, 43, 55, 82, 24, 0)
s = 116: (0, 38, 136, 79, 50, 12, 44, 41, 63, 43, 29, 0)
s = 117: (0, 30, 118, 106, 50, 11, 51, 44, 60, 46, 33, 0)
s = 118: (0, 57, 79, 53, 51, 12, 28, 27, 56, 59, 12, 0)
s = 119: (0, 34, 49, 54, 26, 12, 38, 37, 54, 74, 29, 0)
s = 120: (0, 39, 61, 77, 42, 10, 41, 46, 79, 42, 25, 0)
s = 121: (0, 37, 108, 56, 30, 14, 37, 33, 61, 50, 17, 0)
s = 122: (0, 50, 110, 78, 38, 20, 31, 48, 47, 54, 14, 0)
s = 123: (0, 46, 87, 92, 43, 11, 31, 48, 42, 38, 15, 0)
s = 124: (0, 44, 68, 71, 28, 11, 33, 30, 53, 38, 28, 0)
s = 125: (0, 63, 73, 61, 53, 9, 25, 46, 92, 37, 22, 0)
s = 126: (0, 41, 120, 81, 63, 16, 38, 22, 50, 31, 24, 0)
s = 127: (0, 63, 49, 64, 31, 8, 40, 52, 73, 52, 34, 0)
s = 128: (0, 57, 86, 55, 40, 12, 29, 22, 72, 70, 22, 0)
s = 129: (0, 60, 72, 70, 37, 11, 40, 57, 33, 50, 20, 0)
s = 130: (0, 63, 77, 73, 58, 8, 39, 36, 54, 56, 12, 0)
s = 131: (0, 72, 52, 76, 29, 9, 62, 41, 48, 51, 24, 0)
s = 132: (0, 34, 71, 54, 68, 8, 38, 22, 46, 42, 16, 0)
s = 133: (0, 25, 60, 76, 46, 15, 62, 53, 43, 75, 16, 0)
s = 134: (0, 35, 132, 75, 50, 10, 34, 37, 62, 39, 36, 0)
s = 135: (0, 38, 80, 95, 28, 11, 46, 25, 37, 39, 21, 0)
s = 136: (0, 29, 108, 88, 42, 15, 38, 30, 44, 41, 22, 0)
s = 137: (0, 51, 43, 59, 25, 9, 39, 25, 61, 33, 30, 0)
s = 138: (0, 34, 59, 80, 47, 11, 43, 26, 39, 52, 21, 0)
s = 139: (0, 37, 110, 60, 28, 11, 47, 21, 62, 69, 41, 0)
s = 140: (0, 31, 61, 87, 56, 11, 32, 30, 74, 42, 24, 0)
s = 141: (0, 28, 52, 80, 36, 17, 45, 35, 58, 67, 17, 0)
s = 142: (0, 41, 40, 55, 26, 10, 52, 28, 37, 58, 12, 0)
s = 143: (0, 40, 81, 81, 43, 12, 25, 33, 62, 53, 36, 0)
s = 144: (0, 32, 93, 51, 42, 18, 37, 48, 59, 39, 15, 0)
s = 145: (0, 47, 71, 62, 45, 12, 50, 41, 40, 63, 20, 0)
s = 146: (0, 62, 58, 83, 37, 9, 54, 25, 43, 35, 25, 0)
s = 147: (0, 38, 102, 155, 51, 13, 30, 39, 46, 52, 20, 0)
s = 148: (0, 37, 110, 106, 46, 12, 70, 40, 40, 41, 23, 0)
s = 149: (0, 38, 102, 65, 34, 14, 62, 39, 54, 33, 16, 0)
s = 150: (0, 52, 91, 80, 55, 13, 34, 51, 44, 77, 19, 0)
s = 151: (0, 49, 75, 92, 28, 10, 30, 35, 56, 45, 20, 0)
s = 152: (0, 53, 78, 100, 38, 14, 42, 46, 54, 50, 14, 0)
s = 153: (0, 35, 104, 81, 23, 13, 36, 20, 87, 64, 21, 0)
s = 154: (0, 61, 85, 75, 43, 19, 45, 27, 37, 28, 28, 0)
s = 155: (0, 37, 122, 70, 75, 18, 27, 24, 48, 32, 18, 0)
s = 156: (0, 40, 54, 110, 43, 12, 48, 42, 42, 47, 22, 0)
s = 157: (0, 38, 106, 83, 32, 12, 51, 36, 50, 48, 18, 0)
s = 158: (0, 68, 65, 78, 36, 17, 49, 36, 54, 41, 19, 0)
s = 159: (0, 32, 44, 134, 38, 12, 38, 24, 64, 48, 21, 0)
s = 160: (0, 66, 65, 93, 41, 12, 30, 37, 64, 60, 24, 0)
s = 161: (0, 66, 88, 134, 77, 9, 44, 28, 54, 59, 26, 0)
s = 162: (0, 44, 107, 105, 31, 13, 26, 40, 85, 42, 29, 0)
s = 163: (0, 41, 48, 107, 70, 10, 46, 34, 39, 85, 22, 0)
s = 164: (0, 47, 104, 59, 25, 11, 33, 52, 28, 27, 28, 0)
s = 165: (0, 29, 70, 73, 36, 10, 42, 44, 78, 63, 17, 0)
s = 166: (0, 58, 100, 140, 56, 8, 29, 34, 47, 28, 27, 0)
s = 167: (0, 42, 95, 107, 48, 11, 36, 27, 35, 42, 25, 0)
s = 168: (0, 26, 89, 88, 41, 7, 32, 27, 49, 47, 21, 0)
s = 169: (0, 35, 65, 78, 61, 7, 40, 38, 48, 64, 16, 0)
s = 170: (0, 37, 75, 81, 67, 14, 50, 32, 87, 46, 23, 0)
s = 171: (0, 79, 66, 91, 33, 10, 49, 40, 59, 64, 24, 0)
s = 172: (0, 58, 57, 88, 49, 17, 31, 36, 66, 43, 18, 0)
s = 173: (0, 60, 87, 102, 46, 16, 46, 37, 57, 56, 39, 0)
s = 174: (0, 44, 81, 109, 55, 15, 54, 53, 38, 44, 32, 0)
s = 175: (0, 35, 110, 84, 65, 15, 34, 42, 71, 42, 29, 0)
s = 176: (0, 69, 63, 157, 41, 12, 51, 34, 47, 35, 19, 0)
s = 177: (0, 54, 92, 66, 32, 13, 26, 22, 43, 46, 39, 0)
s = 178: (0, 68, 88, 103, 27, 14, 48, 58, 42, 79, 22, 0)
s = 179: (0, 48, 72, 77, 44, 16, 27, 30, 78, 60, 18, 0)
s = 180: (0, 32, 121, 59, 39, 12, 66, 37, 63, 43, 22, 0)
s = 181: (0, 32, 67, 98, 63, 11, 27, 27, 75, 29, 24, 0)
s = 182: (0, 52, 72, 111, 31, 14, 30, 52, 29, 41, 25, 0)
s = 183: (0, 63, 114, 80, 71, 15, 35, 32, 53, 35, 27, 0)
s = 184: (0, 39, 91, 59, 53, 9, 40, 24, 53, 66, 28, 0)
s = 185: (0, 56, 52, 60, 76, 11, 28, 20, 46, 38, 16, 0)
s = 186: (0, 33, 52, 101, 30, 10, 32, 32, 37, 45, 39, 0)
s = 187: (0, 47, 63, 123, 44, 11, 38, 31, 78, 42, 19, 0)
s = 188: (0, 43, 103, 79, 61, 16, 34, 36, 54, 48, 15, 0)
s = 189: (0, 27, 96, 50, 52, 17, 33, 40, 43, 28, 13, 0)
s = 190: (0, 45, 85, 131, 57, 14, 67, 25, 44, 72, 18, 0)
s = 191: (0, 41, 61, 78, 33, 13, 51, 21, 58, 49, 21, 0)
s = 192: (0, 45, 72, 88, 53, 15, 43, 45, 56, 32, 27, 0)
s = 193: (0, 34, 87, 65, 27, 11, 50, 18, 59, 29, 15, 0)
s = 194: (0, 47, 75, 177, 49, 10, 39, 31, 55, 39, 24, 0)
s = 195: (0, 45, 83, 48, 50, 10, 34, 33, 29, 31, 28, 0)
s = 196: (0, 61, 85, 82, 58, 13, 37, 23, 89, 58, 19, 0)
s = 197: (0, 36, 75, 94, 45, 16, 43, 50, 54, 65, 17, 0)
s = 198: (0, 37, 46, 139, 43, 10, 26, 30, 63, 60, 19, 0)
s = 199: (0, 51, 80, 108, 23, 7, 36, 39, 55, 43, 28, 0)
s = 200: (0, 57, 50, 114, 36, 13, 83, 32, 40, 31, 15, 0)
************************************************************************
ES/LS-VALUES:
jobnr.   ES(i)    LS(i)
------------------------------------------------------------------------
  0        0        0
  1        0       45
  2        0       46
  3        0       52
  4        5       51
  5        7       54
  6        7       58
  7       11       58
  8       13       64
  9       16       64
 10       11       66
 11       21       70
************************************************************************
BIG-M-VALUES:
M1 = 44, M2 = 261
************************************************************************
